1	12	1	8	29	100	0	0	0	0	0	0
2000	1	0	0	0	0	0	0	0	0	0	0
250	1	0	238.34	0.13	1	0	0	0	0	0	0
250	1	0	238.34	0.13	1	0	0	0	0	0	0
250	1	0	238.34	0.13	1	0	0	0	0	0	0
250	1	0	238.34	0.13	1	0	0	0	0	0	0
250	1	0	238.34	0.13	1	0	0	0	0	0	0
250	1	0	238.34	0.13	1	0	0	0	0	0	0
250	1	0	238.34	0.13	1	0	0	0	0	0	0
250	1	0	238.34	0.13	1	0	0	0	0	0	0
250	1	0	238.34	0.13	1	0	0	0	0	0	0
250	1	0	238.34	0.13	1	0	0	0	0	0	0
250	1	0	238.34	0.13	1	0	0	0	0	0	0
250	1	0	238.34	0.13	1	0	0	0	0	0	0
50	150	0	0	0	0	1000	0	0	99999	0	0
25	25	0	0	0	0	1000	0	0	99999	0	0
50	25	0	0	0	0	1000	0	0	99999	0	0
75	25	0	0	0	0	1000	0	0	99999	0	0
25	50	0	0	0	0	1000	0	0	99999	0	0
75	50	0	0	0	0	1000	0	0	99999	0	0
25	75	0	0	0	0	1000	0	0	99999	0	0
50	75	0	0	0	0	1000	0	0	99999	0	0
75	75	0	0	0	0	1000	0	0	99999	0	0
25	25	0	0	0	0	1000	0	0	0	0	0
50	25	0	0	0	0	1000	0	0	0	0	0
75	25	0	0	0	0	1000	0	0	0	0	0
25	50	0	0	0	0	1000	0	0	0	0	0
75	50	0	0	0	0	1000	0	0	0	0	0
25	75	0	0	0	0	1000	0	0	0	0	0
50	75	0	0	0	0	1000	0	0	0	0	0
75	75	0	0	0	0	1000	0	0	0	0	0
35      35      0       0       0       0       230     0       0       0       0       0
61      37      0       0       0       0       230     0       0       0       0       0
74      39      0       0       0       0       230     0       0       0       0       0
47      57      0       0       0       0       230     0       0       0       0       0
57      65      0       0       0       0       230     0       0       0       0       0
29      59      0       0       0       0       230     0       0       0       0       0
34      71      0       0       0       0       230     0       0       0       0       0
22      58      0       0       0       0       230     0       0       0       0       0
7	61	0	0	0	0	1000	0	0	0	0	0
18	41	0	0	0	0	1000	0	0	0	0	0
5	39	0	0	0	0	1000	0	0	0	0	0
14	20	0	0	0	0	1000	0	0	0	0	0
0	26	0	0	0	0	1000	0	0	0	0	0
24	25	0	0	0	0	1000	0	0	0	0	0
26	6	0	0	0	0	1000	0	0	0	0	0
34	20	0	0	0	0	1000	0	0	0	0	0
41	5	0	0	0	0	1000	0	0	0	0	0
50	9	0	0	0	0	1000	0	0	0	0	0
61	14	0	0	0	0	1000	0	0	0	0	0
62	21	0	0	0	0	1000	0	0	0	0	0
74	30	0	0	0	0	1000	0	0	0	0	0
41	49	10	8	2	132	218	10	0	0	0	0
35	17	7	3	4	134	282	10	0	0	0	0
55	45	13	11	2	853	1061	10	0	0	0	0
55	20	19	7	12	116	1081	10	0	0	0	0
15	30	26	13	13	137	298	10	0	0	0	0
25	30	3	3	0	672	824	10	0	0	0	0
20	50	5	2	3	148	226	10	0	0	0	0
10	43	9	2	7	116	1079	10	0	0	0	0
55	60	16	15	1	674	816	10	0	0	0	0
30	60	16	8	8	701	807	10	0	0	0	0
20	65	12	4	8	116	1072	10	0	0	0	0
50	35	19	13	6	966	1050	10	0	0	0	0
30	25	23	19	4	128	249	10	0	0	0	0
15	10	20	13	7	290	420	10	0	0	0	0
30	5	8	1	7	977	1075	10	0	0	0	0
10	20	19	10	9	643	781	10	0	0	0	0
5	30	2	0	2	116	1075	10	0	0	0	0
20	40	12	6	6	519	629	10	0	0	0	0
15	60	17	4	13	116	1073	10	0	0	0	0
45	65	9	6	3	795	885	10	0	0	0	0
45	20	11	5	6	183	329	10	0	0	0	0
45	10	18	4	14	881	1001	10	0	0	0	0
55	5	29	3	26	210	390	10	0	0	0	0
65	35	3	2	1	116	1076	10	0	0	0	0
65	20	6	2	4	185	299	10	0	0	0	0
45	30	17	11	6	116	1094	10	0	0	0	0
35	40	16	14	2	415	593	10	0	0	0	0
41	37	16	14	2	473	611	10	0	0	0	0
64	42	9	6	3	963	1076	10	0	0	0	0
40	60	21	14	7	636	744	10	0	0	0	0
31	52	27	16	11	707	925	10	0	0	0	0
35	69	23	12	11	116	1072	10	0	0	0	0
53	52	11	11	0	365	525	10	0	0	0	0
65	55	14	12	2	179	307	10	0	0	0	0
63	65	8	8	0	116	1064	10	0	0	0	0
2	60	5	0	5	939	1064	10	0	0	0	0
20	20	8	8	0	116	1084	10	0	0	0	0
5	5	16	16	0	116	1063	10	0	0	0	0
60	12	31	6	25	400	556	10	0	0	0	0
40	25	9	6	3	849	945	10	0	0	0	0
42	7	5	1	4	898	1028	10	0	0	0	0
24	12	5	3	2	116	1080	10	0	0	0	0
23	3	7	1	6	497	675	10	0	0	0	0
11	14	18	14	4	694	830	10	0	0	0	0
6	38	16	3	13	895	1076	10	0	0	0	0
2	48	1	0	1	174	310	10	0	0	0	0
8	56	27	4	23	735	879	10	0	0	0	0
13	52	36	9	27	534	674	10	0	0	0	0
6	68	30	3	27	116	1062	10	0	0	0	0
47	47	13	13	0	623	715	10	0	0	0	0
49	58	10	8	2	892	1022	10	0	0	0	0
27	43	9	6	3	349	507	10	0	0	0	0
37	31	14	12	2	116	1101	10	0	0	0	0
57	29	18	9	9	139	260	10	0	0	0	0
63	23	2	1	1	536	706	10	0	0	0	0
53	12	6	1	5	116	1076	10	0	0	0	0
32	12	7	3	4	587	703	10	0	0	0	0
36	26	18	13	5	515	631	10	0	0	0	0
21	24	28	25	3	134	256	10	0	0	0	0
17	34	3	2	1	705	837	10	0	0	0	0
12	24	13	7	6	445	667	10	0	0	0	0
24	58	19	8	11	956	1080	10	0	0	0	0
27	69	10	4	6	895	1059	10	0	0	0	0
15	77	9	2	7	835	937	10	0	0	0	0
62	77	20	16	4	229	331	10	0	0	0	0
49	73	25	17	8	718	868	10	0	0	0	0
67	5	25	2	23	185	315	10	0	0	0	0
56	39	36	25	11	434	582	10	0	0	0	0
37	47	6	5	1	116	1093	10	0	0	0	0
37	56	5	3	2	116	1084	10	0	0	0	0
57	68	15	13	2	116	1066	10	0	0	0	0
47	16	25	9	16	220	368	10	0	0	0	0
44	17	9	3	6	994	1076	10	0	0	0	0
46	13	8	2	6	116	1081	10	0	0	0	0
49	11	18	4	14	116	1078	10	0	0	0	0
49	42	13	11	2	338	466	10	0	0	0	0
53	43	14	11	3	202	340	10	0	0	0	0
61	52	3	3	0	346	524	10	0	0	0	0
57	48	23	19	4	116	1080	10	0	0	0	0
56	37	6	4	2	138	300	10	0	0	0	0
55	54	26	26	0	144	254	10	0	0	0	0
15	47	16	5	11	813	919	10	0	0	0	0
14	37	11	4	7	661	793	10	0	0	0	0
11	31	7	2	5	116	1081	10	0	0	0	0
16	22	41	30	11	668	860	10	0	0	0	0
4	18	35	8	27	993	1063	10	0	0	0	0
28	18	26	17	9	646	684	10	0	0	0	0
26	52	9	5	4	434	580	10	0	0	0	0
26	35	15	11	4	116	1097	10	0	0	0	0
31	67	3	1	2	648	752	10	0	0	0	0
15	19	1	1	0	579	733	10	0	0	0	0
22	22	2	2	0	339	515	10	0	0	0	0
18	24	22	17	5	116	1085	10	0	0	0	0
26	27	27	26	1	650	758	10	0	0	0	0
25	24	20	19	1	131	295	10	0	0	0	0
22	27	11	9	2	990	1064	10	0	0	0	0
25	21	12	10	2	682	752	10	0	0	0	0
19	21	10	9	1	116	1084	10	0	0	0	0
20	26	9	7	2	217	309	10	0	0	0	0
18	18	17	17	0	234	264	10	0	0	0	0
